(set-option :produce-models true)
(set-logic QF_UF)
(declare-fun p18() Bool)
(declare-fun p11() Bool)
(declare-fun p6() Bool)
(declare-fun p2() Bool)
(declare-fun p22() Bool)
(declare-fun p21() Bool)
(declare-fun p19() Bool)
(declare-fun p1() Bool)
(declare-fun p4() Bool)
(declare-fun p16() Bool)
(declare-fun p20() Bool)
(declare-fun p0() Bool)
(declare-fun p12() Bool)
(declare-fun p8() Bool)
(declare-fun p23() Bool)
(declare-fun p24() Bool)
(declare-fun p7() Bool)
(declare-fun p13() Bool)
(declare-fun p17() Bool)
(declare-fun p15() Bool)
(declare-fun p5() Bool)
(declare-fun p10() Bool)
(declare-fun p14() Bool)
(declare-fun p3() Bool)
(declare-fun p9() Bool)
(assert
(and (or p18 p11 p6) (or p2 p22 p21) (or (not p6) (not p19) (not p21)) (or (not p1) p2 p4) (or (not p16) p20 (not p22)) (or p0 p12 p8) (or p21 p23 (not p6)) (or (not p19) (not p24) p21) (or (not p7) p1 p8) (or (not p13) p2 p17) (or (not p19) p15 p1) (or (not p1) (not p17) (not p24)) (or p13 p22 (not p19)) (or p5 p12 (not p6)) (or (not p18) (not p2) p22) (or p8 p19 (not p10)) (or (not p6) p22 p19) (or (not p19) p4 (not p12)) (or p8 (not p12) p24) (or p14 p19 p22) (or p5 p1 p23) (or (not p23) (not p22) (not p23)) (or p21 p3 (not p17)) (or p11 p23 (not p23)) (or p15 (not p0) (not p14)) (or (not p12) p21 p13) (or p3 (not p8) (not p20)) (or p13 (not p23) p11) (or p8 p2 (not p16)) (or p23 p21 p16) (or (not p8) p5 (not p13)) (or (not p21) p4 (not p5)) (or (not p22) p7 (not p4)) (or p1 p24 (not p1)) (or (not p20) (not p9) (not p23)) (or p19 (not p8) (not p23)) (or (not p12) p18 (not p9)) (or p2 (not p20) (not p3)) (or (not p13) p10 p0) (or (not p23) p15 p6) (or (not p17) (not p10) p1) (or p14 (not p23) (not p12)) (or (not p5) p12 (not p7)) (or p14 p24 (not p22)) (or p3 (not p9) p9) (or (not p1) (not p8) p5) (or (not p15) (not p17) (not p13)) (or p15 p9 (not p15)) (or (not p21) (not p14) p13) (or (not p6) (not p0) (not p10)) (or p24 (not p13) p18) (or p8 p19 p17) (or (not p0) (not p5) (not p1)) (or (not p15) (not p8) (not p0)) (or (not p15) p16 (not p7)) (or p16 (not p22) (not p6)) (or (not p2) (not p24) p23) (or p8 p21 p7) (or p8 (not p3) p20) (or (not p2) (not p22) (not p7)) (or p10 (not p0) p21) (or p17 (not p8) (not p12)) (or p6 (not p13) p9) (or (not p20) p14 p5) (or p8 p17 p14) (or (not p4) p1 p0) (or (not p5) (not p8) p4) (or (not p21) (not p6) p14) (or (not p0) (not p10) (not p4)) (or p10 p4 (not p7)) (or p17 (not p2) (not p3)) (or p9 (not p23) p2) (or p5 (not p12) (not p12)) (or p18 (not p11) p18) (or p14 (not p0) (not p7)) (or p7 p2 (not p19)) (or p4 p9 p1) (or p5 p21 (not p18)) (or p23 (not p16) (not p4)) (or (not p8) (not p21) (not p13)) (or (not p8) p18 p11) (or (not p10) p18 (not p12)) (or (not p6) p19 (not p15)) (or p5 (not p9) (not p15)) (or (not p19) p12 (not p8)) (or (not p19) (not p21) (not p7)) (or p12 p2 p17) (or (not p12) (not p18) (not p0)) (or p22 (not p4) p8) (or (not p24) p18 (not p22)) (or p9 p9 (not p10)) (or (not p21) p12 p19) (or (not p0) p7 p14) (or p3 (not p20) (not p7)) (or (not p23) (not p22) p7) (or (not p13) (not p20) (not p19)) (or p10 p4 p0) (or p7 p11 p21) (or p12 p15 p9) (or p7 (not p1) p13) (or p10 (not p15) p0) (or p12 (not p5) (not p3)) (or p3 p8 (not p14)) (or p8 p5 p5) (or p18 p20 p2) (or (not p17) p20 (not p7)) (or (not p0) (not p9) p13))
)
(check-sat)
(get-model)
